\ LP format - for model browsing. Use MPS format to capture full model detail.
Minimize
  12 X_0_1 + 10 X_0_7 + 15 X_0_8 + 12 X_1_0 + 13 X_1_2 + 20 X_1_3 + 16 X_1_6
   + 18 X_1_7 + 13 X_2_1 + 10 X_2_3 + 5 X_2_6 + 20 X_3_1 + 10 X_3_2
   + 14 X_3_4 + 11 X_3_5 + 8 X_3_6 + 14 X_4_3 + 23 X_4_5 + 11 X_5_3
   + 23 X_5_4 + 6 X_5_6 + 18 X_5_8 + 16 X_6_1 + 5 X_6_2 + 8 X_6_3 + 6 X_6_5
   + 7 X_6_7 + 10 X_7_0 + 18 X_7_1 + 7 X_7_6 + 22 X_7_8 + 15 X_8_0
   + 18 X_8_5 + 22 X_8_7
Subject To
 A_0: X_0_1 + X_0_7 + X_0_8 = 1
 A_1: X_1_0 + X_1_2 + X_1_3 + X_1_6 + X_1_7 = 1
 A_2: X_2_1 + X_2_3 + X_2_6 = 1
 A_3: X_3_1 + X_3_2 + X_3_4 + X_3_5 + X_3_6 = 1
 A_4: X_4_3 + X_4_5 = 1
 A_5: X_5_3 + X_5_4 + X_5_6 + X_5_8 = 1
 A_6: X_6_1 + X_6_2 + X_6_3 + X_6_5 + X_6_7 = 1
 A_7: X_7_0 + X_7_1 + X_7_6 + X_7_8 = 1
 A_8: X_8_0 + X_8_5 + X_8_7 = 1
 B_0: G_0_1 + G_0_7 + G_0_8 = 8
 B_1: G_0_1 - G_1_0 - G_1_2 - G_1_3 - G_1_6 - G_1_7 + G_2_1 + G_3_1 + G_6_1
   + G_7_1 = 1
 B_2: G_1_2 - G_2_1 - G_2_3 - G_2_6 + G_3_2 + G_6_2 = 1
 B_3: G_1_3 + G_2_3 - G_3_1 - G_3_2 - G_3_4 - G_3_5 - G_3_6 + G_4_3 + G_5_3
   + G_6_3 = 1
 B_4: G_3_4 - G_4_3 - G_4_5 + G_5_4 = 1
 B_5: G_3_5 + G_4_5 - G_5_3 - G_5_4 - G_5_6 - G_5_8 + G_6_5 + G_8_5 = 1
 B_6: G_1_6 + G_2_6 + G_3_6 + G_5_6 - G_6_1 - G_6_2 - G_6_3 - G_6_5 - G_6_7
   + G_7_6 = 1
 B_7: G_0_7 + G_1_7 + G_6_7 - G_7_0 - G_7_1 - G_7_6 - G_7_8 + G_8_7 = 1
 B_8: G_0_8 + G_5_8 + G_7_8 - G_8_0 - G_8_5 - G_8_7 = 1
 C_0_1: - 8 X_0_1 + G_0_1 <= 0
 C_0_7: - 8 X_0_7 + G_0_7 <= 0
 C_0_8: - 8 X_0_8 + G_0_8 <= 0
 C_1_0: - 8 X_1_0 + G_1_0 <= 0
 C_1_2: - 8 X_1_2 + G_1_2 <= 0
 C_1_3: - 8 X_1_3 + G_1_3 <= 0
 C_1_6: - 8 X_1_6 + G_1_6 <= 0
 C_1_7: - 8 X_1_7 + G_1_7 <= 0
 C_2_1: - 8 X_2_1 + G_2_1 <= 0
 C_2_3: - 8 X_2_3 + G_2_3 <= 0
 C_2_6: - 8 X_2_6 + G_2_6 <= 0
 C_3_1: - 8 X_3_1 + G_3_1 <= 0
 C_3_2: - 8 X_3_2 + G_3_2 <= 0
 C_3_4: - 8 X_3_4 + G_3_4 <= 0
 C_3_5: - 8 X_3_5 + G_3_5 <= 0
 C_3_6: - 8 X_3_6 + G_3_6 <= 0
 C_4_3: - 8 X_4_3 + G_4_3 <= 0
 C_4_5: - 8 X_4_5 + G_4_5 <= 0
 C_5_3: - 8 X_5_3 + G_5_3 <= 0
 C_5_4: - 8 X_5_4 + G_5_4 <= 0
 C_5_6: - 8 X_5_6 + G_5_6 <= 0
 C_5_8: - 8 X_5_8 + G_5_8 <= 0
 C_6_1: - 8 X_6_1 + G_6_1 <= 0
 C_6_2: - 8 X_6_2 + G_6_2 <= 0
 C_6_3: - 8 X_6_3 + G_6_3 <= 0
 C_6_5: - 8 X_6_5 + G_6_5 <= 0
 C_6_7: - 8 X_6_7 + G_6_7 <= 0
 C_7_0: - 8 X_7_0 + G_7_0 <= 0
 C_7_1: - 8 X_7_1 + G_7_1 <= 0
 C_7_6: - 8 X_7_6 + G_7_6 <= 0
 C_7_8: - 8 X_7_8 + G_7_8 <= 0
 C_8_0: - 8 X_8_0 + G_8_0 <= 0
 C_8_5: - 8 X_8_5 + G_8_5 <= 0
 C_8_7: - 8 X_8_7 + G_8_7 <= 0
 CFLC_0_9: X_0_1 + X_0_8 = 1
 CFLC_1_9: X_3_4 + X_5_6 = 1
 CFLC_2_9: X_2_3 + X_6_7 = 1
Bounds
 G_0_1 <= 8
 G_0_7 <= 8
 G_0_8 <= 8
 G_1_0 <= 8
 G_1_2 <= 8
 G_1_3 <= 8
 G_1_6 <= 8
 G_1_7 <= 8
 G_2_1 <= 8
 G_2_3 <= 8
 G_2_6 <= 8
 G_3_1 <= 8
 G_3_2 <= 8
 G_3_4 <= 8
 G_3_5 <= 8
 G_3_6 <= 8
 G_4_3 <= 8
 G_4_5 <= 8
 G_5_3 <= 8
 G_5_4 <= 8
 G_5_6 <= 8
 G_5_8 <= 8
 G_6_1 <= 8
 G_6_2 <= 8
 G_6_3 <= 8
 G_6_5 <= 8
 G_6_7 <= 8
 G_7_0 <= 8
 G_7_1 <= 8
 G_7_6 <= 8
 G_7_8 <= 8
 G_8_0 <= 8
 G_8_5 <= 8
 G_8_7 <= 8
Binaries
 X_0_1 X_0_7 X_0_8 X_1_0 X_1_2 X_1_3 X_1_6 X_1_7 X_2_1 X_2_3 X_2_6 X_3_1
 X_3_2 X_3_4 X_3_5 X_3_6 X_4_3 X_4_5 X_5_3 X_5_4 X_5_6 X_5_8 X_6_1 X_6_2
 X_6_3 X_6_5 X_6_7 X_7_0 X_7_1 X_7_6 X_7_8 X_8_0 X_8_5 X_8_7
End
